NAME: map3_180
TYPE: TSP
COMMENT: autogenerated using a wonderful map creator
DIMENSION: 210
EDGE_WEIGHT_TYPE: EUC_2D
NODE_COORD_SECTION
1 9.0 62.0
2 10.0 62.0
3 11.0 62.0
4 46.0 58.0
5 46.0 59.0
6 46.0 60.0
7 34.0 6.0
8 34.0 5.0
9 34.0 4.0
10 58.0 22.0
11 58.0 21.0
12 58.0 20.0
13 6.0 7.0
14 6.0 6.0
15 6.0 5.0
16 12.0 62.0
17 13.0 62.0
18 14.0 62.0
19 46.0 61.0
20 46.0 62.0
21 46.0 63.0
22 58.0 19.0
23 58.0 18.0
24 58.0 17.0
25 34.0 3.0
26 34.0 2.0
27 34.0 1.0
28 6.0 4.0
29 6.0 3.0
30 6.0 2.0
31 9.0 63.0
32 10.0 63.0
33 11.0 63.0
34 47.0 58.0
35 47.0 59.0
36 47.0 60.0
37 33.0 6.0
38 33.0 5.0
39 33.0 4.0
40 57.0 22.0
41 57.0 21.0
42 57.0 20.0
43 7.0 7.0
44 7.0 6.0
45 7.0 5.0
46 12.0 63.0
47 13.0 63.0
48 14.0 63.0
49 47.0 61.0
50 47.0 62.0
51 47.0 63.0
52 57.0 19.0
53 57.0 18.0
54 57.0 17.0
55 33.0 3.0
56 33.0 2.0
57 33.0 1.0
58 7.0 4.0
59 7.0 3.0
60 7.0 2.0
61 11.0 51.0
62 25.0 50.0
63 63.0 34.0
64 33.0 63.0
65 34.0 28.0
66 36.0 25.0
67 37.0 33.0
68 17.0 30.0
69 4.0 30.0
70 46.0 20.0
71 35.0 17.0
72 33.0 29.0
73 44.0 29.0
74 62.0 10.0
75 52.0 51.0
76 62.0 28.0
77 25.0 43.0
78 27.0 6.0
79 57.0 41.0
80 11.0 44.0
81 62.0 37.0
82 36.0 18.0
83 17.0 60.0
84 22.0 19.0
85 47.0 27.0
86 25.0 61.0
87 3.0 42.0
88 49.0 9.0
89 52.0 26.0
90 21.0 57.0
91 53.0 55.0
92 52.0 35.0
93 13.0 28.0
94 41.0 44.0
95 29.0 27.0
96 39.0 37.0
97 2.0 52.0
98 49.0 39.0
99 41.0 1.0
100 30.0 13.0
101 26.0 55.0
102 3.0 44.0
103 43.0 25.0
104 13.0 21.0
105 53.0 11.0
106 19.0 43.0
107 2.0 36.0
108 25.0 38.0
109 19.0 61.0
110 6.0 27.0
111 6.0 36.0
112 52.0 3.0
113 21.0 34.0
114 20.0 44.0
115 45.0 46.0
116 41.0 39.0
117 25.0 22.0
118 31.0 1.0
119 61.0 51.0
120 31.0 10.0
121 20.0 19.0
122 29.0 31.0
123 28.0 11.0
124 7.0 46.0
125 1.0 60.0
126 61.0 26.0
127 15.0 4.0
128 21.0 54.0
129 27.0 33.0
130 22.0 55.0
131 47.0 54.0
132 45.0 2.0
133 44.0 37.0
134 58.0 60.0
135 46.0 49.0
136 48.0 46.0
137 28.0 25.0
138 36.0 38.0
139 18.0 2.0
140 31.0 60.0
141 42.0 42.0
142 51.0 38.0
143 11.0 36.0
144 41.0 46.0
145 30.0 58.0
146 31.0 23.0
147 22.0 20.0
148 26.0 36.0
149 6.0 33.0
150 21.0 31.0
151 6.0 42.0
152 23.0 37.0
153 18.0 50.0
154 21.0 49.0
155 45.0 34.0
156 34.0 34.0
157 59.0 33.0
158 25.0 10.0
159 62.0 59.0
160 10.0 21.0
161 53.0 1.0
162 28.0 45.0
163 38.0 22.0
164 17.0 54.0
165 23.0 21.0
166 61.0 5.0
167 42.0 1.0
168 58.0 27.0
169 45.0 27.0
170 44.0 7.0
171 42.0 10.0
172 55.0 37.0
173 13.0 4.0
174 27.0 39.0
175 9.0 25.0
176 11.0 22.0
177 63.0 5.0
178 2.0 19.0
179 5.0 45.0
180 63.0 14.0
181 29.0 12.0
182 23.0 60.0
183 23.0 5.0
184 31.0 18.0
185 57.0 37.0
186 9.0 52.0
187 53.0 15.0
188 44.0 46.0
189 18.0 36.0
190 21.0 35.0
191 27.0 14.0
192 55.0 39.0
193 5.0 20.0
194 39.0 52.0
195 25.0 14.0
196 63.0 7.0
197 5.0 47.0
198 33.0 39.0
199 26.0 33.0
200 53.0 17.0
201 47.0 10.0
202 19.0 12.0
203 56.0 31.0
204 44.0 11.0
205 22.0 38.0
206 47.0 37.0
207 49.0 10.0
208 21.0 3.0
209 35.0 20.0
210 59.0 51.0
211 35.0 29.0
212 15.0 26.0
213 5.0 58.0
214 41.0 45.0
215 38.0 28.0
216 24.0 38.0
217 53.0 19.0
218 1.0 45.0
219 47.0 21.0
220 17.0 17.0
221 19.0 14.0
222 20.0 43.0
223 30.0 23.0
224 36.0 39.0
225 31.0 52.0
226 14.0 45.0
227 22.0 58.0
228 23.0 57.0
229 23.0 2.0
230 4.0 53.0
231 58.0 54.0
232 59.0 53.0
233 47.0 14.0
234 27.0 11.0
235 62.0 42.0
236 28.0 28.0
237 17.0 37.0
238 26.0 3.0
239 21.0 53.0
240 44.0 27.0
START_DEPOT_SECTION
1
2
3
4
5
6
7
8
9
10
11
12
13
14
15
16
17
18
19
20
21
22
23
24
25
26
27
28
29
30
-1
END_DEPOT_SECTION
31
32
33
34
35
36
37
38
39
40
41
42
43
44
45
46
47
48
49
50
51
52
53
54
55
56
57
58
59
60
-1
EOF
